NAME : lrc108.1147427.tour
COMMENT : Cost = 0_1147427
COMMENT : Found by LKH [Keld Helsgaun] Fri Sep 15 17:42:02 2017
TYPE : TOUR
DIMENSION : 114
TOUR_SECTION
1
99
79
74
80
9
47
6
4
2
104
46
5
106
91
54
61
8
105
7
3
71
101
56
113
93
96
103
68
63
51
64
86
85
57
92
81
111
70
89
62
82
95
72
73
55
97
69
112
66
84
58
25
23
50
22
24
26
78
110
83
100
53
87
88
60
98
76
59
75
108
34
33
31
29
27
28
30
32
35
94
114
13
15
48
18
17
16
14
10
12
11
107
65
52
77
90
19
49
20
21
102
67
109
42
43
45
44
41
39
38
36
37
40
-1
EOF
